
Welcome to IBM(R) ILOG(R) CPLEX(R) Interactive Optimizer 22.1.1.0
  with Simplex, Mixed Integer & Barrier Optimizers
5725-A06 5725-A29 5724-Y48 5724-Y49 5724-Y54 5724-Y55 5655-Y21
Copyright IBM Corp. 1988, 2022.  All Rights Reserved.

Type 'help' for a list of available commands.
Type 'help' followed by a command name for more
information on commands.

CPLEX> Selected objective sense:  MINIMIZE
Selected objective  name:  00000000
Selected RHS        name:  RHS1
Selected bound      name:  BOUND
Problem 'ee.mps' read.
Read time = 0.02 sec. (3.14 ticks)
CPLEX> New value for time limit in seconds: 7200
CPLEX> New value for parallel optimization mode: -1
CPLEX> New value for default parallel thread count: 40
CPLEX> New value for mixed integer optimality gap tolerance: 1e-13
CPLEX> Version identifier: 22.1.1.0 | 2022-11-28 | 9160aff4d
CPXPARAM_Threads                                 40
CPXPARAM_Parallel                                -1
CPXPARAM_TimeLimit                               7200
CPXPARAM_MIP_Tolerances_MIPGap                   1e-13
Found incumbent of value 0.000000 after 0.00 sec. (0.31 ticks)
Tried aggregator 2 times.
MIP Presolve eliminated 180 rows and 2745 columns.
MIP Presolve modified 5862 coefficients.
Aggregator did 713 substitutions.
Reduced MIP has 3624 rows, 7739 columns, and 28645 nonzeros.
Reduced MIP has 7739 binaries, 0 generals, 0 SOSs, and 0 indicators.
Presolve time = 0.07 sec. (68.57 ticks)
Probing time = 0.03 sec. (5.91 ticks)
Tried aggregator 1 time.
Detecting symmetries...
Reduced MIP has 3624 rows, 7739 columns, and 28645 nonzeros.
Reduced MIP has 7739 binaries, 0 generals, 0 SOSs, and 0 indicators.
Presolve time = 0.03 sec. (21.82 ticks)
Probing time = 0.02 sec. (5.71 ticks)
Clique table members: 18552.
MIP emphasis: balance optimality and feasibility.
MIP search method: dynamic search.
Parallel mode: opportunistic, using up to 40 threads.
Root relaxation solution time = 0.08 sec. (65.65 ticks)

        Nodes                                         Cuts/
   Node  Left     Objective  IInf  Best Integer    Best Bound    ItCnt     Gap

*     0+    0                            0.0000  -1.31000e+13              --- 
*     0+    0                      -5.39000e+12  -1.31000e+13           143.04%
      0     0  -1.30900e+13    82  -5.39000e+12  -1.30900e+13     2002  142.86%
*     0+    0                      -1.30900e+13  -1.30900e+13             0.00%
      0     0  -1.30900e+13   157  -1.30900e+13      Cuts: 72     2912    0.00%
*     0+    0                      -1.30900e+13  -1.30900e+13             0.00%
      0     0  -1.30900e+13   150  -1.30900e+13      Cuts: 84     3021    0.00%
      0     0  -1.30900e+13   216  -1.30900e+13      Cuts: 95     3191    0.00%
*     0+    0                      -1.30900e+13  -1.30900e+13             0.00%
*     0+    0                      -1.30900e+13  -1.30900e+13             0.00%
      0     0  -1.00000e+75     0  -1.30900e+13  -1.30900e+13     3191    0.00%
*     0+    0                      -1.30900e+13  -1.30900e+13             0.00%

Repeating presolve.
Tried aggregator 2 times.
MIP Presolve eliminated 1633 rows and 3725 columns.
MIP Presolve added 42 rows and 0 columns.
MIP Presolve modified 77 coefficients.
Aggregator did 408 substitutions.
Reduced MIP has 1625 rows, 3567 columns, and 12649 nonzeros.
Reduced MIP has 3567 binaries, 0 generals, 0 SOSs, and 0 indicators.
Presolve time = 0.05 sec. (42.63 ticks)
Probing fixed 1 vars, tightened 0 bounds.
Probing time = 0.04 sec. (11.88 ticks)
Tried aggregator 1 time.
Detecting symmetries...
MIP Presolve eliminated 28 rows and 21 columns.
Reduced MIP has 1597 rows, 3542 columns, and 12572 nonzeros.
Reduced MIP has 3542 binaries, 0 generals, 0 SOSs, and 0 indicators.
Presolve time = 0.02 sec. (14.53 ticks)
Represolve time = 0.13 sec. (85.38 ticks)
Probing time = 0.03 sec. (8.28 ticks)
Clique table members: 8384.
MIP emphasis: balance optimality and feasibility.
MIP search method: dynamic search.
Parallel mode: opportunistic, using up to 40 threads.
Root relaxation solution time = 0.07 sec. (56.88 ticks)

        Nodes                                         Cuts/
   Node  Left     Objective  IInf  Best Integer    Best Bound    ItCnt     Gap

*     0+    0                      -1.30900e+13  -1.30900e+13             0.00%
      0     0  -1.30900e+13   138  -1.30900e+13  -1.30900e+13     4576    0.00%
      0     0  -1.30900e+13   147  -1.30900e+13      Cuts: 81     4701    0.00%
      0     0  -1.30900e+13   191  -1.30900e+13      Cuts: 27     4817    0.00%
*     0+    0                      -1.30900e+13  -1.30900e+13             0.00%
      0     2  -1.30900e+13   186  -1.30900e+13  -1.30900e+13     4817    0.00%
Elapsed time = 2.29 sec. (1469.15 ticks, tree = 0.02 MB, solutions = 8)
   1140    72    infeasible        -1.30900e+13  -1.30900e+13    26988    0.00%
   2305    34        cutoff        -1.30900e+13  -1.30900e+13   107450    0.00%
   3247    23  -1.30900e+13   269  -1.30900e+13  -1.30900e+13   250629    0.00%
   3770     7        cutoff        -1.30900e+13  -1.30900e+13   327021    0.00%
   3961    22  -1.30900e+13   122  -1.30900e+13  -1.30900e+13   311652    0.00%
   4056    21        cutoff        -1.30900e+13  -1.30900e+13   313235    0.00%
   4074     4        cutoff        -1.30900e+13  -1.30900e+13   339207    0.00%

GUB cover cuts applied:  4
Clique cuts applied:  29
Cover cuts applied:  395
Flow cuts applied:  11
Mixed integer rounding cuts applied:  11
Zero-half cuts applied:  18
Lift and project cuts applied:  16
Gomory fractional cuts applied:  14

Root node processing (before b&c):
  Real time             =    1.81 sec. (1469.01 ticks)
Parallel b&c, 40 threads:
  Real time             =    3.72 sec. (1824.05 ticks)
  Sync time (average)   =    1.83 sec.
  Wait time (average)   =    0.00 sec.
                          ------------
Total (root+branch&cut) =    5.53 sec. (3293.06 ticks)

Solution pool: 15 solutions saved.

MIP - Integer optimal solution:  Objective = -1.3089999889e+13
Solution time =    5.59 sec.  Iterations = 341807  Nodes = 4076
Deterministic time = 3293.09 ticks  (589.05 ticks/sec)

CPLEX> Solution 'p16' written to file 'ee.sol'.
CPLEX> 